DIMACS_lns/graph-1000-939.col
p edge 1000 1832
e 3 819
e 3 302
e 3 644
e 3 444
e 3 858
e 3 275
e 3 494
e 4 715
e 4 719
e 4 946
e 4 944
e 4 464
e 5 63
e 5 360
e 5 753
e 5 561
e 5 813
e 5 903
e 6 19
e 6 591
e 6 497
e 6 31
e 6 467
e 7 926
e 7 481
e 7 968
e 7 149
e 7 26
e 7 168
e 9 552
e 9 904
e 9 777
e 10 914
e 10 64
e 10 589
e 10 510
e 10 298
e 10 817
e 10 102
e 10 522
e 12 959
e 12 647
e 12 110
e 12 302
e 12 879
e 12 223
e 12 976
e 13 197
e 13 395
e 13 800
e 13 858
e 13 647
e 13 229
e 14 425
e 14 877
e 14 254
e 14 97
e 14 981
e 14 494
e 14 968
e 15 106
e 15 245
e 15 742
e 15 878
e 15 262
e 18 433
e 18 694
e 18 65
e 18 536
e 18 419
e 18 502
e 18 527
e 18 126
e 19 729
e 19 455
e 19 976
e 19 741
e 20 526
e 20 469
e 20 438
e 20 374
e 20 896
e 21 991
e 21 694
e 21 215
e 22 996
e 22 485
e 22 548
e 22 458
e 22 121
e 23 860
e 23 266
e 23 700
e 23 465
e 25 531
e 25 731
e 25 516
e 26 130
e 26 850
e 26 58
e 26 92
e 27 484
e 27 223
e 27 519
e 27 245
e 27 481
e 28 462
e 28 561
e 28 353
e 28 702
e 29 354
e 29 781
e 29 875
e 29 931
e 29 114
e 29 366
e 30 972
e 30 897
e 30 767
e 31 469
e 31 892
e 31 932
e 31 292
e 31 708
e 33 398
e 33 688
e 33 671
e 33 614
e 35 406
e 35 307
e 35 276
e 36 85
e 36 645
e 36 642
e 36 973
e 36 856
e 37 65
e 37 416
e 37 317
e 37 753
e 37 289
e 37 139
e 39 201
e 39 599
e 39 106
e 39 341
e 42 511
e 42 90
e 42 721
e 42 97
e 42 434
e 43 628
e 43 702
e 43 918
e 44 382
e 44 720
e 44 502
e 45 126
e 45 483
e 45 987
e 45 338
e 48 70
e 48 389
e 48 846
e 48 269
e 48 864
e 48 411
e 49 762
e 49 444
e 49 57
e 49 343
e 50 600
e 50 640
e 50 526
e 50 683
e 51 552
e 51 345
e 51 594
e 51 705
e 51 404
e 51 262
e 53 682
e 53 728
e 53 385
e 53 990
e 53 286
e 55 199
e 55 776
e 55 695
e 55 152
e 57 834
e 57 660
e 58 91
e 58 269
e 58 855
e 58 312
e 58 526
e 59 427
e 59 406
e 59 250
e 59 976
e 59 537
e 61 854
e 61 219
e 61 72
e 61 310
e 62 101
e 62 538
e 62 776
e 62 314
e 63 963
e 63 149
e 63 811
e 63 382
e 63 979
e 63 882
e 63 199
e 64 99
e 64 460
e 64 904
e 65 404
e 65 779
e 68 690
e 68 977
e 68 668
e 68 518
e 69 678
e 69 365
e 69 554
e 69 576
e 69 973
e 69 896
e 70 770
e 70 880
e 70 481
e 70 193
e 70 278
e 70 152
e 70 624
e 71 502
e 71 598
e 71 239
e 71 811
e 72 572
e 72 404
e 72 825
e 72 519
e 74 327
e 74 679
e 74 638
e 74 320
e 74 845
e 74 250
e 76 784
e 76 231
e 76 179
e 76 845
e 76 842
e 77 888
e 77 286
e 77 988
e 77 779
e 79 106
e 79 407
e 79 382
e 79 776
e 82 788
e 82 84
e 82 997
e 83 89
e 83 301
e 83 813
e 83 92
e 84 273
e 84 559
e 84 873
e 84 356
e 84 996
e 84 324
e 84 381
e 85 123
e 85 748
e 86 920
e 86 515
e 86 372
e 86 205
e 87 860
e 87 654
e 87 295
e 88 343
e 88 795
e 88 572
e 88 849
e 88 720
e 88 855
e 88 240
e 88 380
e 89 551
e 89 420
e 90 668
e 90 349
e 90 99
e 90 610
e 90 998
e 91 239
e 91 909
e 92 452
e 92 342
e 92 557
e 94 901
e 94 811
e 94 698
e 94 683
e 95 682
e 95 536
e 95 973
e 95 155
e 96 197
e 96 741
e 96 412
e 96 418
e 97 217
e 98 139
e 98 267
e 98 956
e 99 736
e 99 374
e 99 888
e 100 593
e 100 172
e 100 640
e 100 743
e 100 211
e 100 767
e 101 998
e 101 223
e 101 877
e 101 409
e 102 392
e 102 879
e 103 192
e 103 147
e 103 585
e 103 603
e 104 551
e 104 912
e 104 597
e 104 546
e 104 123
e 104 210
e 104 289
e 104 275
e 104 845
e 105 360
e 105 114
e 105 781
e 105 499
e 105 494
e 106 949
e 106 311
e 106 289
e 107 645
e 107 805
e 107 885
e 107 778
e 108 720
e 108 647
e 108 989
e 108 667
e 108 252
e 108 440
e 108 540
e 108 930
e 109 759
e 109 629
e 109 344
e 109 854
e 110 653
e 110 382
e 111 152
e 111 999
e 111 774
e 111 140
e 111 502
e 114 707
e 114 178
e 114 297
e 114 978
e 116 605
e 116 254
e 116 129
e 116 259
e 116 515
e 117 324
e 117 532
e 117 647
e 119 965
e 119 929
e 119 444
e 119 460
e 120 589
e 120 961
e 120 639
e 121 294
e 121 537
e 121 322
e 121 680
e 121 740
e 123 642
e 123 952
e 123 734
e 123 524
e 124 886
e 124 998
e 124 187
e 124 128
e 124 724
e 124 317
e 124 777
e 126 315
e 126 280
e 126 503
e 126 382
e 127 575
e 127 396
e 127 278
e 127 484
e 127 210
e 127 434
e 127 545
e 128 617
e 128 767
e 128 430
e 128 178
e 128 511
e 129 742
e 129 781
e 129 417
e 130 894
e 130 193
e 130 878
e 131 723
e 131 913
e 131 773
e 133 570
e 133 530
e 133 625
e 133 140
e 134 978
e 134 827
e 134 897
e 134 730
e 135 366
e 135 985
e 135 839
e 135 938
e 135 559
e 136 636
e 136 325
e 136 166
e 136 690
e 137 298
e 137 904
e 137 511
e 137 912
e 137 951
e 137 442
e 139 375
e 139 625
e 140 597
e 140 531
e 140 156
e 140 405
e 141 171
e 141 588
e 141 982
e 141 478
e 141 732
e 142 509
e 142 985
e 142 880
e 142 919
e 146 480
e 146 258
e 146 221
e 146 267
e 146 403
e 147 710
e 147 255
e 147 634
e 147 697
e 147 261
e 148 885
e 148 848
e 148 588
e 148 706
e 148 850
e 148 467
e 149 867
e 149 540
e 149 959
e 150 510
e 150 386
e 150 737
e 150 336
e 150 969
e 150 707
e 152 543
e 152 156
e 152 476
e 152 575
e 152 437
e 152 180
e 154 943
e 154 508
e 154 159
e 155 999
e 155 317
e 155 905
e 155 406
e 155 572
e 155 985
e 156 570
e 156 220
e 157 609
e 157 932
e 157 376
e 157 628
e 157 237
e 157 986
e 157 931
e 158 185
e 158 983
e 158 452
e 158 922
e 158 665
e 159 536
e 159 645
e 159 500
e 159 798
e 159 639
e 160 389
e 160 570
e 160 909
e 161 182
e 161 572
e 161 787
e 161 655
e 161 952
e 161 341
e 162 477
e 162 551
e 162 589
e 162 532
e 163 956
e 163 443
e 163 173
e 163 716
e 163 381
e 163 412
e 163 830
e 164 693
e 164 412
e 164 680
e 164 625
e 166 863
e 166 298
e 166 972
e 166 647
e 166 347
e 167 607
e 167 371
e 167 231
e 168 703
e 168 424
e 168 928
e 168 290
e 168 169
e 168 654
e 168 511
e 169 242
e 169 338
e 170 497
e 170 508
e 170 275
e 170 766
e 170 971
e 171 494
e 171 647
e 171 330
e 171 420
e 172 594
e 172 873
e 172 808
e 172 376
e 172 543
e 173 667
e 173 475
e 173 830
e 173 842
e 173 628
e 174 550
e 174 412
e 174 665
e 176 632
e 176 533
e 176 434
e 178 816
e 178 861
e 178 742
e 178 867
e 178 184
e 179 354
e 179 200
e 179 409
e 179 395
e 179 804
e 180 760
e 180 251
e 180 637
e 180 982
e 181 885
e 181 647
e 181 653
e 181 540
e 182 977
e 182 744
e 182 187
e 182 523
e 182 979
e 183 410
e 183 399
e 183 484
e 184 438
e 184 585
e 184 262
e 184 275
e 185 410
e 185 590
e 185 487
e 186 559
e 186 370
e 186 265
e 186 418
e 186 784
e 187 371
e 188 768
e 188 963
e 188 581
e 188 259
e 189 276
e 189 462
e 189 949
e 189 246
e 190 681
e 190 369
e 190 200
e 190 980
e 190 434
e 190 208
e 190 499
e 192 962
e 192 400
e 192 536
e 192 274
e 192 260
e 192 752
e 193 377
e 193 276
e 193 684
e 193 802
e 194 634
e 194 526
e 194 716
e 194 280
e 196 356
e 196 670
e 196 845
e 196 525
e 196 699
e 197 481
e 198 540
e 198 863
e 198 643
e 199 682
e 199 390
e 199 353
e 200 427
e 200 235
e 200 498
e 200 704
e 200 849
e 201 592
e 201 726
e 201 885
e 201 894
e 201 415
e 201 663
e 202 940
e 202 331
e 202 853
e 203 507
e 203 707
e 203 651
e 204 867
e 204 762
e 204 874
e 205 588
e 205 758
e 205 554
e 205 265
e 206 339
e 206 763
e 206 707
e 207 957
e 207 271
e 207 687
e 207 255
e 207 231
e 208 990
e 208 411
e 208 681
e 208 242
e 209 660
e 209 392
e 209 878
e 210 415
e 210 603
e 210 328
e 210 379
e 211 659
e 211 611
e 215 460
e 215 681
e 216 394
e 216 360
e 216 614
e 217 860
e 217 549
e 219 317
e 219 828
e 219 499
e 219 693
e 219 549
e 219 787
e 219 665
e 220 999
e 220 523
e 220 530
e 221 589
e 221 795
e 221 407
e 221 270
e 221 502
e 222 516
e 222 545
e 222 852
e 223 230
e 223 789
e 228 267
e 228 931
e 228 625
e 228 619
e 228 911
e 228 679
e 229 949
e 229 365
e 229 559
e 229 308
e 230 395
e 230 773
e 231 802
e 231 294
e 231 440
e 231 524
e 231 311
e 231 634
e 233 647
e 233 432
e 233 298
e 235 238
e 235 845
e 235 995
e 235 721
e 237 242
e 237 999
e 237 437
e 237 362
e 238 532
e 238 592
e 238 420
e 239 307
e 239 816
e 239 347
e 239 643
e 240 437
e 240 720
e 242 620
e 242 586
e 244 772
e 244 459
e 244 921
e 245 964
e 245 313
e 245 956
e 245 286
e 245 512
e 245 432
e 245 687
e 246 557
e 246 694
e 246 805
e 246 467
e 250 660
e 250 403
e 251 300
e 251 504
e 251 291
e 251 278
e 252 566
e 252 348
e 252 705
e 254 605
e 254 455
e 254 915
e 254 440
e 254 464
e 254 415
e 254 321
e 255 748
e 255 857
e 257 946
e 257 655
e 257 928
e 257 828
e 258 531
e 258 767
e 258 981
e 258 513
e 258 909
e 259 311
e 259 771
e 259 761
e 259 827
e 260 988
e 260 299
e 261 399
e 261 875
e 261 405
e 261 968
e 262 542
e 262 978
e 265 487
e 265 863
e 265 585
e 266 687
e 266 593
e 266 656
e 266 435
e 267 826
e 267 853
e 267 559
e 269 720
e 269 468
e 269 292
e 269 975
e 269 341
e 269 705
e 269 506
e 270 740
e 270 417
e 270 877
e 270 723
e 271 366
e 271 458
e 271 712
e 271 528
e 271 839
e 271 643
e 272 779
e 272 758
e 272 484
e 272 703
e 272 988
e 272 726
e 273 879
e 273 683
e 273 698
e 273 577
e 273 561
e 274 410
e 274 349
e 274 295
e 275 474
e 275 945
e 275 582
e 276 279
e 276 315
e 276 668
e 276 992
e 276 307
e 277 813
e 277 956
e 277 864
e 277 926
e 278 455
e 278 377
e 279 844
e 279 611
e 279 503
e 279 598
e 279 309
e 280 751
e 280 504
e 280 949
e 280 499
e 280 698
e 281 325
e 281 664
e 281 964
e 281 834
e 285 354
e 285 500
e 285 420
e 285 435
e 285 576
e 286 558
e 286 375
e 287 416
e 287 531
e 287 598
e 287 653
e 288 886
e 288 803
e 288 699
e 289 510
e 289 869
e 289 860
e 289 827
e 289 473
e 289 412
e 289 613
e 290 669
e 290 348
e 290 751
e 290 897
e 291 952
e 291 807
e 292 738
e 294 862
e 294 865
e 294 819
e 295 576
e 296 827
e 296 879
e 296 771
e 297 401
e 297 813
e 297 302
e 298 341
e 298 369
e 299 711
e 299 729
e 300 513
e 300 759
e 300 961
e 300 766
e 300 372
e 300 315
e 301 869
e 301 620
e 302 572
e 302 714
e 302 331
e 304 810
e 304 685
e 304 687
e 304 399
e 304 870
e 305 770
e 305 879
e 305 473
e 305 484
e 305 580
e 305 997
e 305 958
e 307 382
e 307 882
e 307 588
e 307 743
e 308 774
e 308 689
e 308 673
e 308 395
e 309 671
e 309 618
e 309 934
e 309 759
e 309 837
e 310 401
e 310 923
e 311 663
e 312 771
e 312 817
e 313 901
e 313 430
e 314 670
e 314 477
e 315 524
e 315 983
e 315 984
e 315 892
e 315 596
e 317 393
e 317 360
e 317 664
e 317 665
e 317 331
e 320 406
e 320 447
e 320 819
e 321 894
e 321 730
e 321 985
e 321 405
e 322 509
e 322 689
e 322 681
e 322 915
e 322 923
e 324 815
e 325 801
e 327 926
e 327 419
e 327 536
e 327 550
e 328 514
e 328 990
e 328 668
e 328 645
e 329 848
e 329 844
e 329 468
e 329 705
e 329 738
e 330 757
e 330 857
e 331 442
e 332 337
e 332 370
e 332 762
e 332 949
e 334 863
e 334 848
e 334 839
e 335 675
e 335 415
e 335 480
e 336 386
e 336 833
e 337 734
e 337 684
e 337 986
e 338 715
e 339 894
e 339 675
e 341 979
e 341 551
e 341 420
e 341 638
e 342 610
e 342 537
e 342 588
e 342 870
e 343 522
e 343 848
e 343 714
e 344 945
e 344 485
e 345 731
e 345 919
e 345 406
e 345 787
e 345 840
e 347 388
e 347 557
e 347 371
e 348 621
e 348 603
e 348 784
e 349 596
e 349 645
e 350 951
e 350 570
e 350 530
e 351 774
e 351 504
e 351 909
e 352 717
e 352 647
e 352 483
e 352 406
e 353 869
e 353 654
e 354 957
e 354 716
e 354 792
e 356 614
e 356 842
e 357 974
e 357 511
e 357 390
e 357 415
e 360 644
e 360 995
e 360 538
e 362 598
e 362 381
e 362 703
e 363 719
e 363 544
e 363 609
e 364 381
e 364 721
e 364 785
e 364 710
e 365 405
e 366 700
e 366 720
e 366 516
e 366 660
e 366 886
e 369 940
e 369 582
e 370 753
e 370 473
e 370 496
e 370 888
e 370 724
e 371 712
e 372 659
e 372 613
e 374 800
e 374 499
e 375 859
e 375 530
e 376 678
e 376 861
e 377 762
e 377 484
e 378 882
e 378 975
e 378 636
e 378 610
e 378 649
e 379 895
e 379 691
e 379 549
e 379 736
e 379 531
e 379 685
e 380 450
e 380 752
e 380 723
e 380 519
e 381 745
e 381 546
e 381 419
e 382 683
e 385 984
e 385 980
e 385 691
e 386 710
e 386 596
e 387 862
e 387 480
e 387 452
e 388 822
e 388 394
e 389 403
e 389 892
e 390 904
e 390 968
e 392 887
e 392 857
e 393 808
e 393 869
e 393 969
e 394 480
e 394 740
e 394 604
e 395 540
e 395 703
e 395 585
e 395 839
e 396 406
e 396 580
e 398 594
e 398 543
e 399 669
e 400 736
e 400 531
e 400 884
e 401 701
e 401 579
e 401 636
e 401 711
e 401 458
e 401 873
e 405 777
e 405 628
e 405 865
e 406 467
e 406 820
e 407 874
e 407 424
e 407 440
e 407 971
e 407 582
e 409 708
e 409 411
e 409 681
e 410 912
e 411 904
e 411 848
e 415 808
e 416 882
e 416 751
e 416 458
e 417 807
e 418 928
e 418 986
e 419 895
e 419 625
e 419 865
e 419 678
e 420 592
e 420 931
e 424 546
e 424 692
e 424 758
e 425 792
e 425 997
e 425 985
e 427 839
e 430 840
e 432 854
e 432 737
e 433 860
e 433 738
e 434 640
e 434 863
e 434 725
e 435 587
e 435 594
e 435 622
e 437 692
e 438 935
e 438 798
e 438 449
e 438 677
e 438 697
e 438 482
e 440 865
e 440 663
e 441 901
e 441 510
e 441 597
e 442 480
e 442 866
e 442 889
e 443 522
e 443 604
e 443 602
e 444 892
e 447 558
e 447 898
e 447 511
e 447 625
e 449 665
e 449 920
e 449 992
e 449 817
e 450 576
e 450 834
e 450 538
e 452 577
e 452 618
e 452 991
e 452 732
e 455 966
e 455 820
e 455 975
e 458 463
e 458 511
e 459 732
e 459 687
e 459 828
e 459 766
e 459 726
e 462 525
e 463 872
e 463 570
e 464 469
e 464 468
e 464 638
e 465 492
e 465 889
e 465 592
e 465 624
e 465 781
e 465 631
e 467 969
e 467 523
e 467 492
e 468 982
e 468 956
e 469 559
e 470 545
e 470 963
e 470 849
e 473 909
e 473 598
e 473 992
e 474 942
e 474 598
e 475 698
e 475 716
e 476 499
e 476 624
e 476 757
e 477 934
e 478 559
e 478 533
e 478 975
e 478 934
e 480 912
e 481 915
e 481 671
e 482 944
e 482 551
e 483 744
e 483 688
e 484 614
e 484 977
e 485 878
e 485 645
e 487 684
e 487 683
e 487 587
e 487 669
e 492 892
e 494 741
e 494 689
e 494 634
e 496 798
e 496 620
e 497 622
e 497 742
e 497 991
e 497 684
e 498 544
e 498 731
e 499 869
e 500 741
e 500 537
e 500 681
e 502 670
e 502 622
e 502 798
e 503 571
e 503 796
e 503 636
e 503 873
e 504 594
e 504 634
e 504 922
e 505 810
e 505 805
e 505 689
e 505 684
e 506 879
e 506 565
e 506 839
e 507 625
e 507 803
e 508 965
e 508 523
e 509 913
e 509 884
e 510 721
e 511 996
e 511 699
e 511 866
e 511 811
e 512 959
e 512 721
e 512 768
e 513 987
e 513 859
e 513 690
e 514 974
e 514 605
e 515 622
e 518 798
e 518 911
e 518 858
e 518 645
e 519 816
e 519 879
e 522 525
e 522 590
e 522 984
e 522 678
e 522 680
e 523 931
e 523 757
e 524 532
e 524 720
e 525 548
e 525 997
e 526 725
e 526 690
e 527 892
e 527 998
e 528 580
e 528 792
e 531 857
e 532 708
e 532 810
e 533 844
e 533 887
e 536 729
e 537 688
e 537 939
e 537 605
e 538 834
e 538 930
e 540 856
e 540 713
e 542 687
e 542 815
e 542 885
e 543 816
e 543 558
e 543 981
e 544 984
e 545 939
e 546 707
e 546 789
e 548 934
e 548 710
e 548 864
e 549 611
e 549 884
e 550 655
e 550 663
e 551 649
e 551 949
e 551 580
e 552 837
e 554 929
e 554 892
e 554 986
e 554 988
e 554 714
e 555 558
e 555 671
e 555 805
e 555 839
e 557 714
e 558 589
e 558 897
e 558 588
e 561 827
e 561 846
e 561 659
e 565 713
e 565 753
e 566 610
e 566 901
e 570 856
e 570 913
e 571 862
e 571 864
e 571 611
e 572 842
e 572 962
e 572 915
e 575 649
e 575 644
e 576 904
e 577 757
e 579 844
e 579 913
e 580 834
e 581 941
e 581 869
e 581 728
e 581 815
e 581 997
e 582 667
e 582 919
e 582 864
e 583 614
e 583 981
e 583 734
e 583 742
e 583 753
e 585 602
e 585 952
e 586 923
e 586 989
e 587 880
e 587 600
e 587 840
e 588 694
e 588 800
e 588 622
e 589 956
e 590 944
e 591 949
e 591 709
e 591 833
e 592 605
e 592 910
e 593 987
e 593 878
e 593 957
e 593 643
e 593 719
e 594 665
e 594 737
e 596 922
e 596 710
e 596 610
e 597 619
e 598 810
e 599 711
e 599 677
e 600 897
e 600 776
e 602 789
e 602 892
e 602 773
e 603 912
e 603 737
e 603 905
e 604 683
e 604 949
e 604 808
e 605 806
e 607 862
e 607 826
e 607 744
e 607 905
e 607 934
e 609 819
e 609 654
e 611 653
e 613 837
e 614 631
e 614 940
e 617 702
e 617 958
e 617 917
e 618 999
e 618 976
e 619 621
e 620 682
e 621 665
e 622 945
e 622 632
e 622 708
e 622 985
e 625 701
e 625 828
e 625 664
e 629 995
e 629 772
e 631 715
e 632 961
e 634 846
e 634 810
e 634 695
e 637 732
e 637 979
e 637 691
e 638 785
e 638 830
e 639 699
e 640 798
e 640 715
e 642 972
e 642 806
e 645 671
e 645 675
e 645 905
e 648 872
e 648 923
e 648 910
e 649 660
e 649 705
e 650 685
e 650 748
e 650 887
e 651 981
e 651 874
e 651 980
e 654 792
e 654 752
e 654 849
e 655 777
e 655 663
e 656 939
e 656 921
e 659 719
e 660 717
e 660 938
e 663 928
e 663 741
e 663 761
e 664 905
e 664 803
e 667 808
e 668 923
e 668 730
e 668 887
e 670 751
e 671 728
e 671 930
e 671 855
e 673 969
e 673 752
e 673 884
e 673 964
e 675 965
e 675 912
e 675 909
e 677 680
e 678 875
e 678 879
e 679 909
e 680 776
e 682 997
e 683 942
e 683 861
e 683 888
e 685 912
e 689 877
e 690 729
e 690 811
e 690 956
e 691 743
e 691 910
e 692 699
e 692 909
e 693 952
e 693 956
e 695 795
e 697 846
e 697 983
e 699 811
e 699 701
e 700 892
e 700 751
e 701 867
e 702 761
e 703 875
e 703 957
e 704 874
e 704 806
e 704 780
e 705 951
e 706 780
e 706 737
e 706 710
e 707 844
e 707 751
e 708 736
e 709 725
e 709 787
e 712 878
e 712 817
e 712 789
e 713 962
e 714 952
e 715 957
e 715 800
e 715 779
e 716 878
e 717 903
e 717 974
e 717 862
e 720 966
e 723 807
e 724 796
e 724 988
e 725 939
e 728 770
e 729 840
e 730 866
e 730 884
e 731 949
e 731 778
e 732 785
e 732 989
e 734 751
e 734 975
e 736 928
e 738 819
e 738 934
e 740 834
e 741 920
e 741 833
e 741 834
e 742 827
e 744 971
e 744 760
e 745 904
e 745 958
e 751 804
e 752 877
e 757 888
e 757 846
e 758 914
e 758 995
e 759 996
e 759 834
e 760 913
e 761 932
e 763 802
e 763 939
e 767 788
e 767 914
e 768 971
e 771 958
e 772 873
e 772 918
e 772 943
e 773 862
e 773 892
e 774 979
e 777 982
e 778 929
e 778 969
e 778 853
e 779 784
e 779 979
e 779 944
e 780 995
e 784 935
e 784 959
e 787 932
e 788 870
e 788 959
e 788 852
e 792 806
e 792 961
e 795 963
e 796 852
e 796 914
e 798 804
e 800 898
e 800 842
e 800 869
e 800 857
e 801 957
e 801 837
e 802 983
e 802 945
e 802 869
e 803 896
e 804 866
e 804 872
e 804 978
e 805 859
e 807 826
e 810 917
e 815 880
e 815 961
e 820 874
e 822 935
e 822 946
e 825 956
e 825 969
e 825 897
e 828 989
e 830 985
e 833 941
e 840 844
e 844 971
e 844 884
e 845 898
e 848 862
e 848 914
e 850 857
e 852 985
e 852 945
e 857 969
e 862 897
e 864 963
e 866 987
e 867 986
e 869 966
e 872 875
e 875 911
e 875 978
e 880 889
e 880 898
e 880 971
e 882 976
e 884 986
e 892 991
e 895 999
e 896 903
e 901 996
e 901 918
e 909 956
e 915 977
e 917 969
e 919 943
e 921 941
e 922 984
e 935 962
e 938 986
e 940 941
e 942 983
e 956 964
e 964 977
e 975 992
e 977 997
