txt_Ins/graph-1000-939.txt
n 1000
e 2 818
e 2 301
e 2 643
e 2 443
e 2 857
e 2 274
e 2 493
e 3 714
e 3 718
e 3 945
e 3 943
e 3 463
e 4 62
e 4 359
e 4 752
e 4 560
e 4 812
e 4 902
e 5 18
e 5 590
e 5 496
e 5 30
e 5 466
e 6 925
e 6 480
e 6 967
e 6 148
e 6 25
e 6 167
e 8 551
e 8 903
e 8 776
e 9 913
e 9 63
e 9 588
e 9 509
e 9 297
e 9 816
e 9 101
e 9 521
e 11 958
e 11 646
e 11 109
e 11 301
e 11 878
e 11 222
e 11 975
e 12 196
e 12 394
e 12 799
e 12 857
e 12 646
e 12 228
e 13 424
e 13 876
e 13 253
e 13 96
e 13 980
e 13 493
e 13 967
e 14 105
e 14 244
e 14 741
e 14 877
e 14 261
e 17 432
e 17 693
e 17 64
e 17 535
e 17 418
e 17 501
e 17 526
e 17 125
e 18 728
e 18 454
e 18 975
e 18 740
e 19 525
e 19 468
e 19 437
e 19 373
e 19 895
e 20 990
e 20 693
e 20 214
e 21 995
e 21 484
e 21 547
e 21 457
e 21 120
e 22 859
e 22 265
e 22 699
e 22 464
e 24 530
e 24 730
e 24 515
e 25 129
e 25 849
e 25 57
e 25 91
e 26 483
e 26 222
e 26 518
e 26 244
e 26 480
e 27 461
e 27 560
e 27 352
e 27 701
e 28 353
e 28 780
e 28 874
e 28 930
e 28 113
e 28 365
e 29 971
e 29 896
e 29 766
e 30 468
e 30 891
e 30 931
e 30 291
e 30 707
e 32 397
e 32 687
e 32 670
e 32 613
e 34 405
e 34 306
e 34 275
e 35 84
e 35 644
e 35 641
e 35 972
e 35 855
e 36 64
e 36 415
e 36 316
e 36 752
e 36 288
e 36 138
e 38 200
e 38 598
e 38 105
e 38 340
e 41 510
e 41 89
e 41 720
e 41 96
e 41 433
e 42 627
e 42 701
e 42 917
e 43 381
e 43 719
e 43 501
e 44 125
e 44 482
e 44 986
e 44 337
e 47 69
e 47 388
e 47 845
e 47 268
e 47 863
e 47 410
e 48 761
e 48 443
e 48 56
e 48 342
e 49 599
e 49 639
e 49 525
e 49 682
e 50 551
e 50 344
e 50 593
e 50 704
e 50 403
e 50 261
e 52 681
e 52 727
e 52 384
e 52 989
e 52 285
e 54 198
e 54 775
e 54 694
e 54 151
e 56 833
e 56 659
e 57 90
e 57 268
e 57 854
e 57 311
e 57 525
e 58 426
e 58 405
e 58 249
e 58 975
e 58 536
e 60 853
e 60 218
e 60 71
e 60 309
e 61 100
e 61 537
e 61 775
e 61 313
e 62 962
e 62 148
e 62 810
e 62 381
e 62 978
e 62 881
e 62 198
e 63 98
e 63 459
e 63 903
e 64 403
e 64 778
e 67 689
e 67 976
e 67 667
e 67 517
e 68 677
e 68 364
e 68 553
e 68 575
e 68 972
e 68 895
e 69 769
e 69 879
e 69 480
e 69 192
e 69 277
e 69 151
e 69 623
e 70 501
e 70 597
e 70 238
e 70 810
e 71 571
e 71 403
e 71 824
e 71 518
e 73 326
e 73 678
e 73 637
e 73 319
e 73 844
e 73 249
e 75 783
e 75 230
e 75 178
e 75 844
e 75 841
e 76 887
e 76 285
e 76 987
e 76 778
e 78 105
e 78 406
e 78 381
e 78 775
e 81 787
e 81 83
e 81 996
e 82 88
e 82 300
e 82 812
e 82 91
e 83 272
e 83 558
e 83 872
e 83 355
e 83 995
e 83 323
e 83 380
e 84 122
e 84 747
e 85 919
e 85 514
e 85 371
e 85 204
e 86 859
e 86 653
e 86 294
e 87 342
e 87 794
e 87 571
e 87 848
e 87 719
e 87 854
e 87 239
e 87 379
e 88 550
e 88 419
e 89 667
e 89 348
e 89 98
e 89 609
e 89 997
e 90 238
e 90 908
e 91 451
e 91 341
e 91 556
e 93 900
e 93 810
e 93 697
e 93 682
e 94 681
e 94 535
e 94 972
e 94 154
e 95 196
e 95 740
e 95 411
e 95 417
e 96 216
e 97 138
e 97 266
e 97 955
e 98 735
e 98 373
e 98 887
e 99 592
e 99 171
e 99 639
e 99 742
e 99 210
e 99 766
e 100 997
e 100 222
e 100 876
e 100 408
e 101 391
e 101 878
e 102 191
e 102 146
e 102 584
e 102 602
e 103 550
e 103 911
e 103 596
e 103 545
e 103 122
e 103 209
e 103 288
e 103 274
e 103 844
e 104 359
e 104 113
e 104 780
e 104 498
e 104 493
e 105 948
e 105 310
e 105 288
e 106 644
e 106 804
e 106 884
e 106 777
e 107 719
e 107 646
e 107 988
e 107 666
e 107 251
e 107 439
e 107 539
e 107 929
e 108 758
e 108 628
e 108 343
e 108 853
e 109 652
e 109 381
e 110 151
e 110 998
e 110 773
e 110 139
e 110 501
e 113 706
e 113 177
e 113 296
e 113 977
e 115 604
e 115 253
e 115 128
e 115 258
e 115 514
e 116 323
e 116 531
e 116 646
e 118 964
e 118 928
e 118 443
e 118 459
e 119 588
e 119 960
e 119 638
e 120 293
e 120 536
e 120 321
e 120 679
e 120 739
e 122 641
e 122 951
e 122 733
e 122 523
e 123 885
e 123 997
e 123 186
e 123 127
e 123 723
e 123 316
e 123 776
e 125 314
e 125 279
e 125 502
e 125 381
e 126 574
e 126 395
e 126 277
e 126 483
e 126 209
e 126 433
e 126 544
e 127 616
e 127 766
e 127 429
e 127 177
e 127 510
e 128 741
e 128 780
e 128 416
e 129 893
e 129 192
e 129 877
e 130 722
e 130 912
e 130 772
e 132 569
e 132 529
e 132 624
e 132 139
e 133 977
e 133 826
e 133 896
e 133 729
e 134 365
e 134 984
e 134 838
e 134 937
e 134 558
e 135 635
e 135 324
e 135 165
e 135 689
e 136 297
e 136 903
e 136 510
e 136 911
e 136 950
e 136 441
e 138 374
e 138 624
e 139 596
e 139 530
e 139 155
e 139 404
e 140 170
e 140 587
e 140 981
e 140 477
e 140 731
e 141 508
e 141 984
e 141 879
e 141 918
e 145 479
e 145 257
e 145 220
e 145 266
e 145 402
e 146 709
e 146 254
e 146 633
e 146 696
e 146 260
e 147 884
e 147 847
e 147 587
e 147 705
e 147 849
e 147 466
e 148 866
e 148 539
e 148 958
e 149 509
e 149 385
e 149 736
e 149 335
e 149 968
e 149 706
e 151 542
e 151 155
e 151 475
e 151 574
e 151 436
e 151 179
e 153 942
e 153 507
e 153 158
e 154 998
e 154 316
e 154 904
e 154 405
e 154 571
e 154 984
e 155 569
e 155 219
e 156 608
e 156 931
e 156 375
e 156 627
e 156 236
e 156 985
e 156 930
e 157 184
e 157 982
e 157 451
e 157 921
e 157 664
e 158 535
e 158 644
e 158 499
e 158 797
e 158 638
e 159 388
e 159 569
e 159 908
e 160 181
e 160 571
e 160 786
e 160 654
e 160 951
e 160 340
e 161 476
e 161 550
e 161 588
e 161 531
e 162 955
e 162 442
e 162 172
e 162 715
e 162 380
e 162 411
e 162 829
e 163 692
e 163 411
e 163 679
e 163 624
e 165 862
e 165 297
e 165 971
e 165 646
e 165 346
e 166 606
e 166 370
e 166 230
e 167 702
e 167 423
e 167 927
e 167 289
e 167 168
e 167 653
e 167 510
e 168 241
e 168 337
e 169 496
e 169 507
e 169 274
e 169 765
e 169 970
e 170 493
e 170 646
e 170 329
e 170 419
e 171 593
e 171 872
e 171 807
e 171 375
e 171 542
e 172 666
e 172 474
e 172 829
e 172 841
e 172 627
e 173 549
e 173 411
e 173 664
e 175 631
e 175 532
e 175 433
e 177 815
e 177 860
e 177 741
e 177 866
e 177 183
e 178 353
e 178 199
e 178 408
e 178 394
e 178 803
e 179 759
e 179 250
e 179 636
e 179 981
e 180 884
e 180 646
e 180 652
e 180 539
e 181 976
e 181 743
e 181 186
e 181 522
e 181 978
e 182 409
e 182 398
e 182 483
e 183 437
e 183 584
e 183 261
e 183 274
e 184 409
e 184 589
e 184 486
e 185 558
e 185 369
e 185 264
e 185 417
e 185 783
e 186 370
e 187 767
e 187 962
e 187 580
e 187 258
e 188 275
e 188 461
e 188 948
e 188 245
e 189 680
e 189 368
e 189 199
e 189 979
e 189 433
e 189 207
e 189 498
e 191 961
e 191 399
e 191 535
e 191 273
e 191 259
e 191 751
e 192 376
e 192 275
e 192 683
e 192 801
e 193 633
e 193 525
e 193 715
e 193 279
e 195 355
e 195 669
e 195 844
e 195 524
e 195 698
e 196 480
e 197 539
e 197 862
e 197 642
e 198 681
e 198 389
e 198 352
e 199 426
e 199 234
e 199 497
e 199 703
e 199 848
e 200 591
e 200 725
e 200 884
e 200 893
e 200 414
e 200 662
e 201 939
e 201 330
e 201 852
e 202 506
e 202 706
e 202 650
e 203 866
e 203 761
e 203 873
e 204 587
e 204 757
e 204 553
e 204 264
e 205 338
e 205 762
e 205 706
e 206 956
e 206 270
e 206 686
e 206 254
e 206 230
e 207 989
e 207 410
e 207 680
e 207 241
e 208 659
e 208 391
e 208 877
e 209 414
e 209 602
e 209 327
e 209 378
e 210 658
e 210 610
e 214 459
e 214 680
e 215 393
e 215 359
e 215 613
e 216 859
e 216 548
e 218 316
e 218 827
e 218 498
e 218 692
e 218 548
e 218 786
e 218 664
e 219 998
e 219 522
e 219 529
e 220 588
e 220 794
e 220 406
e 220 269
e 220 501
e 221 515
e 221 544
e 221 851
e 222 229
e 222 788
e 227 266
e 227 930
e 227 624
e 227 618
e 227 910
e 227 678
e 228 948
e 228 364
e 228 558
e 228 307
e 229 394
e 229 772
e 230 801
e 230 293
e 230 439
e 230 523
e 230 310
e 230 633
e 232 646
e 232 431
e 232 297
e 234 237
e 234 844
e 234 994
e 234 720
e 236 241
e 236 998
e 236 436
e 236 361
e 237 531
e 237 591
e 237 419
e 238 306
e 238 815
e 238 346
e 238 642
e 239 436
e 239 719
e 241 619
e 241 585
e 243 771
e 243 458
e 243 920
e 244 963
e 244 312
e 244 955
e 244 285
e 244 511
e 244 431
e 244 686
e 245 556
e 245 693
e 245 804
e 245 466
e 249 659
e 249 402
e 250 299
e 250 503
e 250 290
e 250 277
e 251 565
e 251 347
e 251 704
e 253 604
e 253 454
e 253 914
e 253 439
e 253 463
e 253 414
e 253 320
e 254 747
e 254 856
e 256 945
e 256 654
e 256 927
e 256 827
e 257 530
e 257 766
e 257 980
e 257 512
e 257 908
e 258 310
e 258 770
e 258 760
e 258 826
e 259 987
e 259 298
e 260 398
e 260 874
e 260 404
e 260 967
e 261 541
e 261 977
e 264 486
e 264 862
e 264 584
e 265 686
e 265 592
e 265 655
e 265 434
e 266 825
e 266 852
e 266 558
e 268 719
e 268 467
e 268 291
e 268 974
e 268 340
e 268 704
e 268 505
e 269 739
e 269 416
e 269 876
e 269 722
e 270 365
e 270 457
e 270 711
e 270 527
e 270 838
e 270 642
e 271 778
e 271 757
e 271 483
e 271 702
e 271 987
e 271 725
e 272 878
e 272 682
e 272 697
e 272 576
e 272 560
e 273 409
e 273 348
e 273 294
e 274 473
e 274 944
e 274 581
e 275 278
e 275 314
e 275 667
e 275 991
e 275 306
e 276 812
e 276 955
e 276 863
e 276 925
e 277 454
e 277 376
e 278 843
e 278 610
e 278 502
e 278 597
e 278 308
e 279 750
e 279 503
e 279 948
e 279 498
e 279 697
e 280 324
e 280 663
e 280 963
e 280 833
e 284 353
e 284 499
e 284 419
e 284 434
e 284 575
e 285 557
e 285 374
e 286 415
e 286 530
e 286 597
e 286 652
e 287 885
e 287 802
e 287 698
e 288 509
e 288 868
e 288 859
e 288 826
e 288 472
e 288 411
e 288 612
e 289 668
e 289 347
e 289 750
e 289 896
e 290 951
e 290 806
e 291 737
e 293 861
e 293 864
e 293 818
e 294 575
e 295 826
e 295 878
e 295 770
e 296 400
e 296 812
e 296 301
e 297 340
e 297 368
e 298 710
e 298 728
e 299 512
e 299 758
e 299 960
e 299 765
e 299 371
e 299 314
e 300 868
e 300 619
e 301 571
e 301 713
e 301 330
e 303 809
e 303 684
e 303 686
e 303 398
e 303 869
e 304 769
e 304 878
e 304 472
e 304 483
e 304 579
e 304 996
e 304 957
e 306 381
e 306 881
e 306 587
e 306 742
e 307 773
e 307 688
e 307 672
e 307 394
e 308 670
e 308 617
e 308 933
e 308 758
e 308 836
e 309 400
e 309 922
e 310 662
e 311 770
e 311 816
e 312 900
e 312 429
e 313 669
e 313 476
e 314 523
e 314 982
e 314 983
e 314 891
e 314 595
e 316 392
e 316 359
e 316 663
e 316 664
e 316 330
e 319 405
e 319 446
e 319 818
e 320 893
e 320 729
e 320 984
e 320 404
e 321 508
e 321 688
e 321 680
e 321 914
e 321 922
e 323 814
e 324 800
e 326 925
e 326 418
e 326 535
e 326 549
e 327 513
e 327 989
e 327 667
e 327 644
e 328 847
e 328 843
e 328 467
e 328 704
e 328 737
e 329 756
e 329 856
e 330 441
e 331 336
e 331 369
e 331 761
e 331 948
e 333 862
e 333 847
e 333 838
e 334 674
e 334 414
e 334 479
e 335 385
e 335 832
e 336 733
e 336 683
e 336 985
e 337 714
e 338 893
e 338 674
e 340 978
e 340 550
e 340 419
e 340 637
e 341 609
e 341 536
e 341 587
e 341 869
e 342 521
e 342 847
e 342 713
e 343 944
e 343 484
e 344 730
e 344 918
e 344 405
e 344 786
e 344 839
e 346 387
e 346 556
e 346 370
e 347 620
e 347 602
e 347 783
e 348 595
e 348 644
e 349 950
e 349 569
e 349 529
e 350 773
e 350 503
e 350 908
e 351 716
e 351 646
e 351 482
e 351 405
e 352 868
e 352 653
e 353 956
e 353 715
e 353 791
e 355 613
e 355 841
e 356 973
e 356 510
e 356 389
e 356 414
e 359 643
e 359 994
e 359 537
e 361 597
e 361 380
e 361 702
e 362 718
e 362 543
e 362 608
e 363 380
e 363 720
e 363 784
e 363 709
e 364 404
e 365 699
e 365 719
e 365 515
e 365 659
e 365 885
e 368 939
e 368 581
e 369 752
e 369 472
e 369 495
e 369 887
e 369 723
e 370 711
e 371 658
e 371 612
e 373 799
e 373 498
e 374 858
e 374 529
e 375 677
e 375 860
e 376 761
e 376 483
e 377 881
e 377 974
e 377 635
e 377 609
e 377 648
e 378 894
e 378 690
e 378 548
e 378 735
e 378 530
e 378 684
e 379 449
e 379 751
e 379 722
e 379 518
e 380 744
e 380 545
e 380 418
e 381 682
e 384 983
e 384 979
e 384 690
e 385 709
e 385 595
e 386 861
e 386 479
e 386 451
e 387 821
e 387 393
e 388 402
e 388 891
e 389 903
e 389 967
e 391 886
e 391 856
e 392 807
e 392 868
e 392 968
e 393 479
e 393 739
e 393 603
e 394 539
e 394 702
e 394 584
e 394 838
e 395 405
e 395 579
e 397 593
e 397 542
e 398 668
e 399 735
e 399 530
e 399 883
e 400 700
e 400 578
e 400 635
e 400 710
e 400 457
e 400 872
e 404 776
e 404 627
e 404 864
e 405 466
e 405 819
e 406 873
e 406 423
e 406 439
e 406 970
e 406 581
e 408 707
e 408 410
e 408 680
e 409 911
e 410 903
e 410 847
e 414 807
e 415 881
e 415 750
e 415 457
e 416 806
e 417 927
e 417 985
e 418 894
e 418 624
e 418 864
e 418 677
e 419 591
e 419 930
e 423 545
e 423 691
e 423 757
e 424 791
e 424 996
e 424 984
e 426 838
e 429 839
e 431 853
e 431 736
e 432 859
e 432 737
e 433 639
e 433 862
e 433 724
e 434 586
e 434 593
e 434 621
e 436 691
e 437 934
e 437 797
e 437 448
e 437 676
e 437 696
e 437 481
e 439 864
e 439 662
e 440 900
e 440 509
e 440 596
e 441 479
e 441 865
e 441 888
e 442 521
e 442 603
e 442 601
e 443 891
e 446 557
e 446 897
e 446 510
e 446 624
e 448 664
e 448 919
e 448 991
e 448 816
e 449 575
e 449 833
e 449 537
e 451 576
e 451 617
e 451 990
e 451 731
e 454 965
e 454 819
e 454 974
e 457 462
e 457 510
e 458 731
e 458 686
e 458 827
e 458 765
e 458 725
e 461 524
e 462 871
e 462 569
e 463 468
e 463 467
e 463 637
e 464 491
e 464 888
e 464 591
e 464 623
e 464 780
e 464 630
e 466 968
e 466 522
e 466 491
e 467 981
e 467 955
e 468 558
e 469 544
e 469 962
e 469 848
e 472 908
e 472 597
e 472 991
e 473 941
e 473 597
e 474 697
e 474 715
e 475 498
e 475 623
e 475 756
e 476 933
e 477 558
e 477 532
e 477 974
e 477 933
e 479 911
e 480 914
e 480 670
e 481 943
e 481 550
e 482 743
e 482 687
e 483 613
e 483 976
e 484 877
e 484 644
e 486 683
e 486 682
e 486 586
e 486 668
e 491 891
e 493 740
e 493 688
e 493 633
e 495 797
e 495 619
e 496 621
e 496 741
e 496 990
e 496 683
e 497 543
e 497 730
e 498 868
e 499 740
e 499 536
e 499 680
e 501 669
e 501 621
e 501 797
e 502 570
e 502 795
e 502 635
e 502 872
e 503 593
e 503 633
e 503 921
e 504 809
e 504 804
e 504 688
e 504 683
e 505 878
e 505 564
e 505 838
e 506 624
e 506 802
e 507 964
e 507 522
e 508 912
e 508 883
e 509 720
e 510 995
e 510 698
e 510 865
e 510 810
e 511 958
e 511 720
e 511 767
e 512 986
e 512 858
e 512 689
e 513 973
e 513 604
e 514 621
e 517 797
e 517 910
e 517 857
e 517 644
e 518 815
e 518 878
e 521 524
e 521 589
e 521 983
e 521 677
e 521 679
e 522 930
e 522 756
e 523 531
e 523 719
e 524 547
e 524 996
e 525 724
e 525 689
e 526 891
e 526 997
e 527 579
e 527 791
e 530 856
e 531 707
e 531 809
e 532 843
e 532 886
e 535 728
e 536 687
e 536 938
e 536 604
e 537 833
e 537 929
e 539 855
e 539 712
e 541 686
e 541 814
e 541 884
e 542 815
e 542 557
e 542 980
e 543 983
e 544 938
e 545 706
e 545 788
e 547 933
e 547 709
e 547 863
e 548 610
e 548 883
e 549 654
e 549 662
e 550 648
e 550 948
e 550 579
e 551 836
e 553 928
e 553 891
e 553 985
e 553 987
e 553 713
e 554 557
e 554 670
e 554 804
e 554 838
e 556 713
e 557 588
e 557 896
e 557 587
e 560 826
e 560 845
e 560 658
e 564 712
e 564 752
e 565 609
e 565 900
e 569 855
e 569 912
e 570 861
e 570 863
e 570 610
e 571 841
e 571 961
e 571 914
e 574 648
e 574 643
e 575 903
e 576 756
e 578 843
e 578 912
e 579 833
e 580 940
e 580 868
e 580 727
e 580 814
e 580 996
e 581 666
e 581 918
e 581 863
e 582 613
e 582 980
e 582 733
e 582 741
e 582 752
e 584 601
e 584 951
e 585 922
e 585 988
e 586 879
e 586 599
e 586 839
e 587 693
e 587 799
e 587 621
e 588 955
e 589 943
e 590 948
e 590 708
e 590 832
e 591 604
e 591 909
e 592 986
e 592 877
e 592 956
e 592 642
e 592 718
e 593 664
e 593 736
e 595 921
e 595 709
e 595 609
e 596 618
e 597 809
e 598 710
e 598 676
e 599 896
e 599 775
e 601 788
e 601 891
e 601 772
e 602 911
e 602 736
e 602 904
e 603 682
e 603 948
e 603 807
e 604 805
e 606 861
e 606 825
e 606 743
e 606 904
e 606 933
e 608 818
e 608 653
e 610 652
e 612 836
e 613 630
e 613 939
e 616 701
e 616 957
e 616 916
e 617 998
e 617 975
e 618 620
e 619 681
e 620 664
e 621 944
e 621 631
e 621 707
e 621 984
e 624 700
e 624 827
e 624 663
e 628 994
e 628 771
e 630 714
e 631 960
e 633 845
e 633 809
e 633 694
e 636 731
e 636 978
e 636 690
e 637 784
e 637 829
e 638 698
e 639 797
e 639 714
e 641 971
e 641 805
e 644 670
e 644 674
e 644 904
e 647 871
e 647 922
e 647 909
e 648 659
e 648 704
e 649 684
e 649 747
e 649 886
e 650 980
e 650 873
e 650 979
e 653 791
e 653 751
e 653 848
e 654 776
e 654 662
e 655 938
e 655 920
e 658 718
e 659 716
e 659 937
e 662 927
e 662 740
e 662 760
e 663 904
e 663 802
e 666 807
e 667 922
e 667 729
e 667 886
e 669 750
e 670 727
e 670 929
e 670 854
e 672 968
e 672 751
e 672 883
e 672 963
e 674 964
e 674 911
e 674 908
e 676 679
e 677 874
e 677 878
e 678 908
e 679 775
e 681 996
e 682 941
e 682 860
e 682 887
e 684 911
e 688 876
e 689 728
e 689 810
e 689 955
e 690 742
e 690 909
e 691 698
e 691 908
e 692 951
e 692 955
e 694 794
e 696 845
e 696 982
e 698 810
e 698 700
e 699 891
e 699 750
e 700 866
e 701 760
e 702 874
e 702 956
e 703 873
e 703 805
e 703 779
e 704 950
e 705 779
e 705 736
e 705 709
e 706 843
e 706 750
e 707 735
e 708 724
e 708 786
e 711 877
e 711 816
e 711 788
e 712 961
e 713 951
e 714 956
e 714 799
e 714 778
e 715 877
e 716 902
e 716 973
e 716 861
e 719 965
e 722 806
e 723 795
e 723 987
e 724 938
e 727 769
e 728 839
e 729 865
e 729 883
e 730 948
e 730 777
e 731 784
e 731 988
e 733 750
e 733 974
e 735 927
e 737 818
e 737 933
e 739 833
e 740 919
e 740 832
e 740 833
e 741 826
e 743 970
e 743 759
e 744 903
e 744 957
e 750 803
e 751 876
e 756 887
e 756 845
e 757 913
e 757 994
e 758 995
e 758 833
e 759 912
e 760 931
e 762 801
e 762 938
e 766 787
e 766 913
e 767 970
e 770 957
e 771 872
e 771 917
e 771 942
e 772 861
e 772 891
e 773 978
e 776 981
e 777 928
e 777 968
e 777 852
e 778 783
e 778 978
e 778 943
e 779 994
e 783 934
e 783 958
e 786 931
e 787 869
e 787 958
e 787 851
e 791 805
e 791 960
e 794 962
e 795 851
e 795 913
e 797 803
e 799 897
e 799 841
e 799 868
e 799 856
e 800 956
e 800 836
e 801 982
e 801 944
e 801 868
e 802 895
e 803 865
e 803 871
e 803 977
e 804 858
e 806 825
e 809 916
e 814 879
e 814 960
e 819 873
e 821 934
e 821 945
e 824 955
e 824 968
e 824 896
e 827 988
e 829 984
e 832 940
e 839 843
e 843 970
e 843 883
e 844 897
e 847 861
e 847 913
e 849 856
e 851 984
e 851 944
e 856 968
e 861 896
e 863 962
e 865 986
e 866 985
e 868 965
e 871 874
e 874 910
e 874 977
e 879 888
e 879 897
e 879 970
e 881 975
e 883 985
e 891 990
e 894 998
e 895 902
e 900 995
e 900 917
e 908 955
e 914 976
e 916 968
e 918 942
e 920 940
e 921 983
e 934 961
e 937 985
e 939 940
e 941 982
e 955 963
e 963 976
e 974 991
e 976 996
